InboundTrucks  = 100;
OutboundTrucks = 50;
InboundDoors   = 16;
OutboundDoors  = 16;
ReleaseTime    = [4,47,98,64,26,13,71,92,8,68,8,57,44,50,48,79,29,93,37,95,20,36,26,34,4,99,93,57,17,21,29,89,72,39,99,38,78,74,33,30,43,10,86,93,41,8,25,57,88,16,46,6,4,97,41,26,59,24,18,5,92,57,77,17,72,58,3,36,74,56,99,66,1,64,100,4,26,37,57,86,19,37,52,67,45,30,47,46,25,21,51,57,51,95,50,70,56,28,95,23];
UnloadTime     = [1,4,12,10,3,10,12,8,9,12,5,4,3,6,12,1,5,11,11,12,12,9,12,11,8,6,4,11,6,2,9,3,2,12,9,10,6,4,1,7,5,4,1,11,5,2,4,10,11,3,9,10,10,7,6,8,6,12,8,6,4,6,1,11,6,2,11,3,6,11,5,12,3,7,6,1,11,11,8,12,3,12,1,8,4,11,6,3,7,7,4,1,9,3,4,3,6,3,4,12];
LoadTime       = [2,6,12,4,6,9,6,11,3,9,2,11,3,5,8,2,7,2,7,10,8,4,3,7,3,6,7,7,4,11,7,11,11,4,3,9,11,7,6,1,9,1,10,9,9,8,7,5,3,9];
TransferTime   = [| 2,0,0,2,0,0,2,0,0,0,0,0,2,0,0,2,1,0,0,0,1,0,0,0,0,0,0,1,2,0,1,1,0,0,1,0,0,2,1,0,0,2,2,0,1,0,0,2,1,0 | 0,0,0,2,0,0,2,0,2,0,0,0,2,1,1,0,1,0,2,0,2,1,0,0,1,0,0,1,0,0,0,0,0,0,1,0,0,0,0,0,0,0,0,2,2,0,0,2,1,0 | 0,1,0,0,0,2,0,0,0,2,0,1,0,2,2,0,1,0,0,2,1,0,2,0,2,0,0,1,0,0,0,1,1,0,1,0,0,0,0,1,0,1,1,0,0,1,0,1,1,0 | 2,0,0,1,1,2,0,0,2,0,0,2,0,0,0,1,2,1,0,0,0,0,2,0,0,0,1,2,2,0,0,0,2,0,0,1,0,2,0,0,2,0,1,0,2,2,0,0,0,0 | 0,0,1,0,0,0,0,0,0,0,1,0,1,1,0,0,0,2,2,2,1,0,0,2,0,2,0,0,1,1,1,0,0,0,0,0,0,0,0,1,0,0,0,2,0,1,1,0,1,1 | 1,2,0,1,1,0,0,0,2,0,0,0,2,0,0,1,0,1,0,0,0,0,0,0,0,1,0,0,0,0,2,0,1,0,0,0,0,0,0,2,1,0,2,0,1,0,0,2,0,1 | 1,0,1,2,0,1,0,0,1,2,0,0,0,0,0,0,1,1,2,2,2,0,0,0,0,0,0,0,1,1,0,0,1,1,2,0,2,2,1,2,0,0,0,2,0,1,0,0,0,2 | 0,1,2,0,1,0,1,0,0,0,1,0,2,0,0,0,2,2,1,0,1,0,0,1,0,2,1,1,0,0,1,0,2,1,0,2,1,0,0,2,0,0,2,0,0,0,0,0,1,0 | 0,2,2,2,2,0,0,0,0,2,0,0,0,0,0,0,2,0,1,1,0,0,0,2,2,2,2,0,0,1,0,0,1,1,0,1,0,0,0,1,1,0,0,0,0,0,2,2,2,0 | 0,0,0,2,2,1,2,0,0,0,0,0,0,0,0,1,1,2,0,0,0,0,0,0,0,1,0,0,2,2,2,0,0,0,0,0,0,0,2,1,0,0,1,1,2,0,1,0,2,0 | 0,0,0,0,0,0,0,2,0,1,0,0,0,1,1,2,2,1,1,0,0,2,2,0,0,0,0,0,2,2,0,0,1,1,0,1,0,0,0,0,1,1,2,0,1,1,0,0,1,2 | 2,1,2,0,0,0,0,0,0,0,2,1,2,0,0,1,0,0,0,1,0,0,2,0,0,2,0,2,1,1,1,2,0,1,0,0,2,2,0,2,0,2,0,2,0,2,0,0,0,1 | 0,0,1,0,1,2,0,0,0,0,0,1,0,1,2,1,0,0,2,1,0,0,0,0,1,1,2,2,0,0,2,1,1,2,0,0,0,0,1,0,1,2,1,2,0,0,0,1,2,0 | 0,0,1,0,0,2,0,0,1,0,0,2,0,0,0,1,2,2,0,1,0,1,0,1,0,2,0,0,1,1,1,1,1,0,0,1,0,1,0,0,2,0,2,1,2,0,1,0,2,0 | 1,1,1,1,0,1,2,0,0,2,0,0,1,1,0,0,0,1,2,2,0,2,0,1,2,1,0,0,0,2,0,1,0,0,0,0,0,0,2,1,2,1,1,0,1,0,0,0,1,2 | 0,0,0,1,0,1,0,0,1,0,0,0,2,0,0,0,0,0,0,0,0,0,0,0,0,2,0,0,0,0,0,0,0,0,1,1,0,1,0,0,0,2,0,0,2,0,1,0,2,0 | 1,1,0,0,0,0,0,2,0,0,0,2,0,2,1,0,0,0,0,0,0,2,0,0,2,0,2,1,2,1,0,0,2,2,2,0,0,0,0,0,2,0,2,0,2,0,0,0,0,1 | 0,0,0,2,1,2,2,1,0,0,0,2,1,2,1,1,0,0,2,0,0,1,0,0,0,0,2,0,1,0,0,1,0,0,2,0,0,0,0,0,0,0,0,2,1,0,0,2,0,1 | 0,0,0,1,0,2,0,0,0,0,0,0,0,0,1,0,0,0,0,0,0,0,1,1,0,1,0,0,2,0,0,2,1,0,0,0,0,1,0,0,1,0,0,0,0,1,1,0,0,2 | 0,0,1,0,2,0,1,2,1,0,0,1,1,2,1,0,0,0,0,0,0,0,0,1,1,2,2,2,0,2,0,2,0,0,0,1,0,0,0,2,1,0,0,1,1,1,0,2,1,0 | 1,0,0,4,0,5,0,0,0,0,2,0,2,0,0,0,0,2,0,0,0,2,1,2,0,0,4,0,0,0,0,0,0,0,0,0,0,0,0,1,0,0,0,0,0,5,1,0,0,0 | 0,0,4,0,1,0,4,0,1,0,0,0,0,0,0,0,0,0,0,1,0,0,1,0,0,0,4,0,0,5,0,0,1,0,0,5,0,0,0,0,0,3,0,4,0,0,0,0,5,2 | 4,0,1,0,1,3,0,0,0,0,0,0,0,0,0,3,2,0,0,0,0,0,3,0,2,3,0,2,0,3,0,2,0,0,0,0,0,0,2,0,0,4,3,0,0,3,0,0,0,0 | 0,0,1,1,2,3,2,0,4,2,0,0,0,0,0,0,0,0,0,0,2,0,0,2,0,0,0,0,0,0,0,0,0,5,5,2,0,1,0,2,0,4,0,0,3,0,4,0,0,4 | 0,0,0,4,0,0,0,4,5,4,0,0,0,4,0,4,0,4,0,0,0,0,3,4,0,0,0,0,0,1,0,0,4,0,4,0,0,2,0,0,0,0,2,4,4,5,0,0,0,0 | 0,0,0,0,0,0,0,0,0,0,1,0,0,0,2,0,0,1,4,0,0,0,0,0,0,5,0,0,1,3,0,0,0,0,0,0,4,2,1,3,0,0,0,0,0,0,1,4,0,0 | 0,0,0,3,0,0,0,0,1,0,5,0,0,2,0,3,0,0,0,0,2,0,0,0,0,0,1,0,0,3,4,3,0,0,0,0,0,1,2,2,5,3,0,0,0,3,0,0,0,0 | 1,0,0,0,4,0,0,0,0,4,0,0,2,0,0,0,1,0,1,0,4,1,0,0,0,2,0,0,0,0,0,2,5,0,0,0,1,0,0,0,0,0,0,0,0,2,0,0,0,0 | 0,0,0,1,0,5,0,0,0,0,0,0,0,0,3,0,0,0,0,0,0,0,0,0,0,0,1,0,0,0,4,0,0,0,0,0,0,0,0,0,0,0,0,4,0,5,0,0,4,0 | 0,2,3,0,0,2,0,0,1,0,0,0,0,0,0,0,3,3,0,2,0,0,2,1,0,0,4,0,0,0,0,0,0,5,1,0,0,3,0,0,0,2,0,0,0,0,0,0,2,0 | 3,0,0,0,2,0,0,0,0,5,0,5,0,0,2,0,0,5,0,0,0,2,0,0,2,0,0,5,1,0,1,0,0,0,5,0,0,0,0,5,0,0,0,1,0,0,0,4,4,1 | 4,0,0,0,2,0,0,0,0,0,0,0,0,1,4,0,4,0,0,3,0,0,0,0,5,0,1,1,0,0,0,0,4,2,0,0,0,0,0,2,0,5,3,0,0,0,0,0,0,4 | 0,0,0,0,5,4,2,5,0,0,0,0,2,0,2,0,0,4,2,0,4,0,0,0,0,3,2,0,0,0,4,0,4,0,4,2,0,0,2,0,0,1,0,0,0,3,0,2,0,0 | 0,0,0,0,0,0,2,0,3,0,0,0,1,0,0,2,3,0,4,0,4,0,0,3,0,4,0,2,0,0,0,4,0,0,0,0,0,2,0,5,0,1,0,0,0,4,5,1,0,0 | 0,0,2,0,0,0,5,0,1,1,0,2,0,0,4,0,0,3,5,0,0,0,0,0,1,5,3,0,0,4,0,0,0,1,0,0,0,0,3,0,0,0,0,0,0,3,0,0,3,2 | 0,0,1,0,0,0,5,1,0,1,0,0,4,0,0,0,0,3,5,0,1,0,0,0,0,0,0,0,4,0,0,2,2,0,2,2,4,0,0,0,0,0,0,0,3,0,0,3,0,0 | 0,0,0,0,0,3,0,3,0,0,3,0,0,0,4,2,0,5,3,0,0,0,0,0,3,0,0,0,0,0,0,0,0,0,0,0,5,0,4,0,4,0,0,0,0,4,0,0,5,0 | 0,0,0,0,0,0,0,0,0,0,5,0,4,0,2,0,0,0,0,0,0,0,0,0,0,0,0,0,2,0,0,3,0,0,0,0,0,0,0,0,0,0,0,0,0,5,0,0,4,0 | 2,0,1,2,0,0,0,0,0,5,3,0,0,4,3,0,0,3,0,5,0,0,0,0,0,0,0,2,0,0,0,2,4,0,0,0,1,0,0,0,5,0,0,0,0,0,0,0,0,0 | 0,3,0,3,0,5,0,0,0,0,1,0,0,5,2,4,0,0,0,0,0,0,0,3,2,0,0,0,0,0,0,4,0,0,3,0,0,0,0,0,0,0,0,2,2,0,2,2,1,4 | 0,0,0,1,3,3,2,0,0,1,0,3,4,1,3,3,3,2,1,0,0,0,0,4,0,0,1,1,0,0,2,0,0,2,0,0,0,0,0,5,0,2,0,4,0,0,0,1,0,0 | 0,0,0,0,4,0,0,0,0,0,0,0,4,5,0,4,2,3,0,0,0,3,1,2,0,0,0,3,0,0,0,0,0,2,0,5,0,4,0,0,0,0,2,0,4,0,5,5,0,0 | 4,0,0,0,0,1,4,1,0,0,0,0,0,0,0,0,2,0,0,0,0,4,0,0,0,0,0,4,3,1,1,4,4,0,0,3,0,0,0,2,1,0,0,0,0,0,0,5,0,0 | 3,0,0,2,0,4,1,5,0,0,0,5,0,0,4,3,1,0,0,0,0,0,0,0,5,4,0,0,0,0,0,3,0,0,1,0,1,0,0,4,0,5,0,3,0,0,0,0,0,1 | 0,0,4,0,2,0,0,0,5,1,0,2,0,0,3,0,0,0,0,2,4,0,0,0,0,0,0,0,0,5,0,0,0,2,0,1,0,0,0,0,2,0,0,4,0,1,4,0,0,0 | 0,0,0,0,0,0,3,0,0,1,0,0,2,5,0,0,0,2,0,2,0,0,0,1,3,0,0,0,2,0,5,0,1,0,0,2,0,0,0,0,1,3,0,0,0,0,0,0,0,4 | 4,2,0,0,2,0,0,0,0,0,3,1,2,3,1,0,0,0,2,0,0,0,0,1,4,0,0,0,0,0,2,5,0,0,0,0,2,0,0,4,0,0,0,0,0,2,0,0,0,0 | 0,0,0,0,0,0,0,3,1,0,0,3,0,0,3,5,0,0,0,4,2,0,4,0,0,1,0,0,0,0,0,1,0,2,0,0,0,0,1,3,1,0,0,0,0,4,4,0,3,0 | 4,0,0,0,0,4,0,0,0,1,2,0,0,0,5,4,0,0,0,0,0,0,0,0,0,1,0,0,5,0,0,0,0,3,0,0,0,0,0,1,1,0,0,0,0,3,0,0,1,0 | 0,0,3,0,0,0,0,3,0,1,3,0,0,0,2,0,0,1,0,2,2,0,2,0,0,0,0,0,0,0,0,0,0,4,0,0,0,0,0,1,5,0,0,1,0,0,0,0,0,3 | 0,0,1,4,2,0,4,0,0,0,1,5,0,0,3,0,1,0,0,1,0,0,4,0,0,0,5,5,3,0,0,0,3,0,0,5,0,0,0,0,0,0,5,0,5,0,3,0,0,4 | 0,0,0,3,0,0,0,0,0,0,3,5,0,2,4,3,0,0,0,0,0,2,4,5,0,0,0,0,0,0,0,0,0,5,0,0,1,0,0,0,0,0,0,0,0,0,0,0,0,0 | 0,0,0,0,0,0,0,0,3,0,0,5,5,3,0,1,0,0,0,3,0,0,0,0,0,0,1,0,2,0,0,0,0,1,0,5,3,0,0,0,0,5,0,0,4,0,0,0,0,0 | 4,0,0,0,0,3,2,0,0,0,5,1,0,0,2,0,3,0,3,1,1,0,1,0,1,0,0,0,1,0,0,0,0,0,0,5,0,1,0,0,0,0,0,0,0,1,0,0,4,0 | 1,0,0,0,0,0,0,0,5,0,0,0,2,1,5,1,0,0,0,3,1,0,0,0,0,4,1,0,0,0,0,4,0,0,0,0,5,0,0,0,5,0,0,0,2,0,4,0,2,0 | 0,0,2,0,0,0,0,0,0,0,0,0,0,0,0,0,0,0,0,0,0,0,0,0,5,3,0,0,0,0,0,0,5,0,0,0,0,0,3,0,0,0,1,0,0,0,0,5,1,0 | 0,0,0,0,0,0,0,0,1,0,0,0,3,0,0,0,0,0,0,2,0,1,0,0,0,0,4,0,0,0,0,0,0,0,0,0,1,0,0,0,1,1,0,0,0,0,0,4,0,0 | 3,0,0,0,0,0,0,0,0,0,0,0,1,0,4,0,0,0,1,0,0,0,0,4,0,0,3,0,2,0,0,3,0,2,0,0,0,0,0,0,0,3,0,2,0,0,0,4,0,0 | 5,0,0,0,2,1,0,0,0,5,5,4,1,0,0,3,0,2,4,0,0,5,0,0,0,0,0,0,0,0,3,0,0,4,3,4,0,0,5,0,0,0,0,0,1,0,0,1,1,0 | 0,0,0,4,0,1,0,0,4,3,0,0,0,4,0,0,0,0,0,0,0,2,0,0,0,0,0,0,0,2,0,0,1,3,5,0,0,0,3,4,1,0,0,5,0,0,0,3,0,2 | 0,0,0,0,0,0,0,0,4,0,0,0,0,0,2,0,0,0,0,0,0,0,0,0,0,0,4,0,3,0,0,0,0,0,0,1,2,5,4,0,2,0,0,4,5,0,0,0,4,0 | 0,0,0,0,0,0,0,0,0,0,0,2,0,5,0,0,0,0,5,5,0,0,5,0,0,0,0,0,0,0,0,4,4,4,0,0,4,0,0,2,0,2,0,1,1,0,0,0,0,2 | 4,3,1,0,0,0,0,1,0,0,0,0,0,2,0,0,0,0,0,0,0,0,0,0,5,0,0,3,0,4,2,1,5,0,5,0,0,0,0,4,0,2,1,0,0,0,2,0,0,0 | 0,0,0,0,5,0,0,0,0,0,0,0,0,2,0,3,0,0,3,2,0,0,0,0,0,3,0,0,0,0,5,1,0,0,0,0,0,0,0,3,3,0,0,0,0,0,0,1,0,3 | 0,0,0,0,2,0,0,4,5,0,0,2,4,0,3,0,0,0,0,0,2,5,0,2,0,0,0,0,0,0,0,0,0,0,0,0,0,0,0,0,0,0,0,0,0,4,0,0,0,0 | 0,1,0,0,0,0,1,3,0,0,3,1,2,0,2,0,3,0,5,0,5,0,0,1,0,0,0,0,4,0,0,0,0,0,0,0,0,0,2,2,0,0,0,0,5,0,0,0,1,0 | 0,2,0,0,0,0,0,4,0,2,0,0,0,4,0,4,0,0,1,0,0,0,0,0,0,0,0,0,0,0,0,0,0,0,0,0,1,0,0,0,0,0,0,0,0,0,0,1,5,0 | 0,0,4,2,0,4,0,3,1,0,3,5,0,0,2,0,0,0,4,0,0,0,0,0,0,0,0,0,2,0,0,0,0,3,0,0,0,0,5,1,2,0,0,1,0,4,2,0,0,0 | 0,3,0,0,0,0,0,0,1,3,3,0,0,0,1,0,0,0,0,0,0,0,5,5,0,0,0,0,0,0,0,0,0,0,0,0,0,0,0,0,0,0,0,3,0,0,0,0,0,0 | 0,0,0,0,0,5,0,0,0,1,0,0,1,0,0,0,0,0,0,0,0,0,3,2,0,0,0,0,0,0,0,0,0,0,3,4,1,1,0,0,0,0,0,0,0,4,3,1,0,0 | 2,0,3,0,5,2,5,0,0,0,0,0,0,0,0,0,0,3,0,0,0,4,1,2,3,5,0,0,5,0,1,1,5,0,0,0,0,0,0,0,0,0,1,0,1,5,0,1,0,4 | 2,1,0,5,2,0,0,0,0,0,0,0,0,0,0,0,3,0,5,0,0,0,0,0,0,3,0,0,0,0,0,0,4,3,5,1,0,1,4,0,0,3,0,0,0,5,0,0,0,0 | 5,0,0,0,0,0,5,0,0,1,3,3,1,0,0,0,0,0,0,0,2,4,1,1,3,2,0,0,0,0,0,0,3,3,3,2,0,0,0,0,1,0,0,0,0,0,0,0,0,0 | 2,0,4,0,4,0,5,0,0,0,0,2,0,0,0,0,3,0,0,0,2,0,0,0,3,0,0,0,0,0,0,2,0,0,0,0,1,0,0,3,3,5,0,0,0,0,0,0,0,0 | 0,0,3,0,0,1,4,0,0,0,4,4,0,0,1,5,0,0,0,4,0,0,0,0,0,0,0,0,0,4,0,0,2,2,3,0,0,0,0,0,0,0,0,5,4,0,1,2,1,2 | 1,0,3,0,3,2,1,0,0,3,5,0,0,0,3,3,0,0,0,0,0,0,0,1,0,0,0,2,4,0,0,0,0,5,0,0,0,0,5,1,0,0,0,0,0,0,0,0,0,3 | 0,0,3,1,0,3,0,0,0,2,0,0,4,0,5,5,0,0,3,4,0,0,0,3,0,5,2,0,3,0,0,0,4,3,0,0,1,0,4,0,0,0,0,2,0,0,0,1,2,0 | 0,3,0,3,2,3,0,0,0,0,0,0,0,0,0,0,2,0,0,0,0,0,0,0,0,4,5,1,0,0,0,0,0,0,3,1,3,0,0,0,0,0,1,0,2,0,0,1,0,1 | 0,3,0,0,0,3,4,5,0,0,5,0,4,0,3,0,2,1,0,0,0,0,0,0,0,0,0,0,5,5,0,0,4,0,0,0,2,0,0,0,3,0,3,4,3,0,4,1,0,0 | 0,4,1,1,1,2,2,0,2,3,0,0,0,2,2,0,0,4,1,0,0,0,2,4,0,0,0,0,3,0,0,2,0,0,0,0,1,0,0,0,5,0,4,0,0,0,2,0,0,5 | 0,0,0,3,1,0,0,4,0,2,0,2,0,0,5,0,2,3,4,0,0,0,1,0,3,0,0,0,0,0,0,2,0,5,0,2,0,5,0,0,0,0,0,4,2,0,0,0,0,0 | 0,0,0,0,5,0,0,0,5,0,3,0,0,0,0,5,2,0,0,0,0,0,0,0,0,0,4,0,2,0,0,5,0,0,0,0,0,0,3,0,0,0,0,0,0,0,0,0,0,4 | 1,3,0,4,0,0,4,1,4,0,2,3,0,0,0,0,0,4,0,0,2,0,0,3,0,5,0,0,0,0,0,5,0,0,0,0,2,0,0,0,0,0,0,0,5,1,3,4,0,0 | 3,0,0,2,0,0,0,0,0,0,3,0,5,0,0,3,0,4,0,0,0,0,0,0,0,0,0,0,0,0,0,0,4,0,4,0,0,0,1,0,5,0,2,0,0,0,0,0,0,3 | 0,5,0,0,0,0,2,0,3,0,0,0,2,0,0,0,0,4,0,0,0,0,4,0,0,0,2,0,0,5,0,0,2,0,0,1,0,0,2,0,0,0,0,2,2,2,0,0,0,0 | 0,1,4,0,0,3,0,5,0,0,2,0,0,2,0,0,0,0,0,0,0,0,0,0,0,0,1,2,0,0,0,0,0,0,0,0,0,0,0,3,0,0,5,1,0,0,1,0,0,0 | 0,0,0,0,1,0,0,0,0,0,0,0,0,0,3,0,3,0,0,0,0,4,0,0,2,0,0,0,0,0,0,0,5,0,4,0,0,0,0,0,0,0,0,0,0,4,0,0,0,5 | 0,3,0,4,0,0,0,0,0,4,0,0,0,0,1,2,4,1,0,0,0,4,5,0,0,0,3,2,0,1,3,0,3,0,0,0,0,1,0,0,0,0,0,0,0,3,3,0,2,0 | 0,3,0,0,0,0,0,4,0,0,0,0,0,0,5,0,0,1,4,0,0,0,0,0,0,1,0,4,0,0,0,0,0,0,0,5,0,0,0,0,0,0,0,0,0,0,2,0,0,0 | 0,5,0,4,0,0,0,0,0,0,4,0,5,0,2,0,0,0,0,0,0,3,0,0,2,1,0,2,4,0,0,2,0,0,0,0,3,0,3,5,0,0,4,0,0,0,0,0,0,5 | 0,0,0,0,0,4,0,0,3,0,0,0,0,0,0,0,0,0,4,1,2,0,0,3,0,0,0,0,0,0,0,0,0,4,0,5,0,0,0,0,4,0,0,5,0,0,0,0,3,0 | 3,0,0,0,0,0,0,0,0,4,0,0,0,0,0,1,0,0,5,2,0,0,0,0,0,0,0,1,1,0,0,5,2,1,5,0,0,5,0,0,0,0,0,0,0,0,0,2,0,0 | 5,0,0,4,5,0,0,0,4,0,0,5,1,1,0,4,0,5,0,0,2,5,0,0,0,0,0,0,4,0,1,0,0,0,3,0,0,3,0,4,4,0,0,5,0,4,0,0,4,0 | 0,0,0,5,0,0,2,1,0,0,3,0,0,4,1,0,5,0,0,0,0,0,0,0,0,1,2,0,0,4,0,0,0,0,0,0,0,0,4,0,0,0,3,3,0,2,4,0,5,4 | 0,4,0,0,0,2,0,3,2,0,0,0,0,0,0,0,0,0,4,0,0,0,0,0,0,0,0,0,0,0,0,5,0,0,0,0,4,0,0,0,0,3,0,0,0,5,0,0,0,0 | 0,0,0,0,0,1,3,3,0,4,3,2,0,0,0,0,0,0,0,0,4,0,0,0,2,0,0,5,0,0,0,0,0,0,0,0,0,1,1,0,1,0,0,0,0,0,4,0,1,5 | 0,0,0,0,0,0,2,0,0,3,0,3,4,0,0,0,0,0,3,0,0,0,0,0,5,0,0,0,0,0,3,0,3,0,0,0,0,0,0,0,0,5,0,0,1,0,1,0,0,4 | 0,0,0,0,0,0,0,0,0,0,0,0,0,0,2,0,1,0,0,3,0,0,2,0,5,4,5,0,0,4,0,0,3,0,0,0,0,0,0,0,0,0,0,0,0,0,0,0,0,0 | 0,0,0,0,0,5,3,0,2,0,1,0,0,0,0,1,2,0,0,0,4,3,0,0,0,0,0,4,5,0,4,1,0,0,1,2,0,0,0,0,2,2,2,4,0,0,2,0,5,3 | 0,0,0,0,0,0,3,0,0,0,0,0,0,0,0,1,1,2,0,0,0,2,0,5,0,0,3,0,0,0,0,0,0,0,0,0,4,0,0,0,0,0,5,0,2,0,0,0,0,4 |];
